(set-logic QF_SLIA)
(declare-fun var0 () String)
(assert (not (str.in_re var0 (re.++ ((_ re.loop 17 650) (re.++ (re.union (str.to_re "}bv") (re.union (str.to_re "z3") (re.union (str.to_re "+-|") (str.to_re "=")))) (re.++ (re.union (str.to_re "/") (re.union (str.to_re "4~%") (re.union (str.to_re "g.") (str.to_re ".<")))) (re.++ (re.union (str.to_re "y") (re.union (str.to_re "h`") (re.union (str.to_re "'") (str.to_re "i")))) (re.union (str.to_re "\\") (re.union (str.to_re "#bP") (re.union (str.to_re "a\\r") (str.to_re "SZW")))))))) (re.++ ((_ re.loop 13 945) (re.++ (re.union (str.to_re "-") (re.union (str.to_re "L") (re.union (str.to_re "Dv|") (str.to_re "z!:")))) (re.++ (re.union (str.to_re "kM") (re.union (str.to_re "-Fa") (re.union (str.to_re "$") (str.to_re "o")))) (re.++ (re.union (str.to_re "x") (re.union (str.to_re ";u8") (re.union (str.to_re "dk") (str.to_re "|")))) (re.union (str.to_re ";JY") (re.union (str.to_re "o(;") (re.union (str.to_re "|") (str.to_re "#")))))))) (re.++ ((_ re.loop 3 662) (re.++ (re.union (str.to_re "`n") (re.union (str.to_re "Mr") (re.union (str.to_re "y_I") (str.to_re "If")))) (re.++ (re.union (str.to_re "`i;") (re.union (str.to_re "P") (re.union (str.to_re "2") (str.to_re "}Ma")))) (re.++ (re.union (str.to_re "3T:") (re.union (str.to_re "]j") (re.union (str.to_re "e-") (str.to_re "-0")))) (re.union (str.to_re "!") (re.union (str.to_re "iR") (re.union (str.to_re "[F6") (str.to_re "8T")))))))) ((_ re.loop 10 350) (re.++ (re.union (str.to_re "@:Y") (re.union (str.to_re "F") (re.union (str.to_re "-U") (str.to_re "8ln")))) (re.++ (re.union (str.to_re "t-") (re.union (str.to_re "e(") (re.union (str.to_re "aYH") (str.to_re ">xD")))) (re.++ (re.union (str.to_re "b") (re.union (str.to_re "a") (re.union (str.to_re "n~") (str.to_re "AaH")))) (re.union (str.to_re "%we") (re.union (str.to_re "/db") (re.union (str.to_re "K`") (str.to_re "A2."))))))))))))))
(assert (not (str.in_re var0 (re.++ ((_ re.loop 12 797) (re.++ (re.union (str.to_re "%") (re.union (str.to_re ">") (re.union (str.to_re "V") (str.to_re "N")))) (re.++ (re.union (str.to_re "u6") (re.union (str.to_re ".p") (re.union (str.to_re "#-") (str.to_re "GY")))) (re.++ (re.union (str.to_re "g&@") (re.union (str.to_re "&(") (re.union (str.to_re "s") (str.to_re "nmh")))) (re.union (str.to_re "Q{j") (re.union (str.to_re "=e") (re.union (str.to_re "N+#") (str.to_re ">VB")))))))) (re.++ ((_ re.loop 9 983) (re.++ (re.union (str.to_re "i") (re.union (str.to_re "pb") (re.union (str.to_re "\\") (str.to_re "=^U")))) (re.++ (re.union (str.to_re "Ne%") (re.union (str.to_re "Z") (re.union (str.to_re "*") (str.to_re "_")))) (re.++ (re.union (str.to_re "qN") (re.union (str.to_re "u") (re.union (str.to_re "SB:") (str.to_re "'")))) (re.union (str.to_re "WK") (re.union (str.to_re "\\\\G") (re.union (str.to_re "iF") (str.to_re ":")))))))) (re.++ ((_ re.loop 4 741) (re.++ (re.union (str.to_re "%") (re.union (str.to_re "q") (re.union (str.to_re "F0") (str.to_re ":G")))) (re.++ (re.union (str.to_re "0o") (re.union (str.to_re "@)") (re.union (str.to_re "s+=") (str.to_re "[_")))) (re.++ (re.union (str.to_re "3") (re.union (str.to_re "p\\S") (re.union (str.to_re "\\VV") (str.to_re "r")))) (re.union (str.to_re ".") (re.union (str.to_re "e") (re.union (str.to_re "=_w") (str.to_re "&")))))))) ((_ re.loop 14 762) (re.++ (re.union (str.to_re "2") (re.union (str.to_re "5/") (re.union (str.to_re "U") (str.to_re "SrX")))) (re.++ (re.union (str.to_re "5") (re.union (str.to_re ";aL") (re.union (str.to_re "E") (str.to_re "lf,")))) (re.++ (re.union (str.to_re ")") (re.union (str.to_re "G") (re.union (str.to_re "5t`") (str.to_re "&")))) (re.union (str.to_re "\u0022^O") (re.union (str.to_re "<%v") (re.union (str.to_re ":") (str.to_re "s"))))))))))))))
(assert (not (str.in_re var0 (re.++ (re.* re.allchar) (re.++ (re.union (str.to_re "<") (re.union (str.to_re ">") (re.union (str.to_re "'") (re.union (str.to_re "\u0022") (str.to_re "&"))))) (re.* re.allchar))))))
(assert (<= 50 (str.len var0)))
(check-sat)
(get-model)
